(set-info :smt-lib-version 2.7)
(set-logic ALL)
(set-info :source |
Generated on: 2026-06-22
Generator: pog2smtlib-2.7 github.com/CLEARSY/pog2smtlib-2.7 (-l HO_ALL -rpX)
Application: Discharging a proof obligation generated by aTelierB from an anonymized B machine
Target solver: CVC5 (--mbqi --enum-inst)
Time limit: 1200.0
|)
(set-info :license "www.gnu.org/licenses/gpl-3.0.en.html")
(set-info :category "industrial")
(set-info :status unknown)

(set-option :print-success false)
(declare-datatype C (par (T1 T2) ((maplet (fst T1) (snd T2)))))
(define-sort |Z| () Int)
(declare-sort P 1)
(define-sort |(Z x Z)| () (C |Z| |Z|))
(define-sort |POW Z| () (P |Z|))
(define-sort |((Z x Z) x Z)| () (C |(Z x Z)| |Z|))
(define-sort |POW (Z x Z)| () (P |(Z x Z)|))
(declare-fun |set.in Z| (|Z| |POW Z|) Bool)
(define-sort |POW ((Z x Z) x Z)| () (P |((Z x Z) x Z)|))
(declare-fun |set.in (Z x Z)| (|(Z x Z)| |POW (Z x Z)|) Bool)
(declare-fun |set.in ((Z x Z) x Z)| (|((Z x Z) x Z)| |POW ((Z x Z) x Z)|) Bool)
(define-sort |POW POW ((Z x Z) x Z)| () (P |POW ((Z x Z) x Z)|))
(define-sort |POW POW (Z x Z)| () (P |POW (Z x Z)|))
(declare-fun |set.subseteq ((Z x Z) x Z)| (|POW ((Z x Z) x Z)| |POW ((Z x Z) x Z)|) Bool)
(assert (!
    (forall ((s |POW ((Z x Z) x Z)|) (t |POW ((Z x Z) x Z)|))
      (=
        (|set.subseteq ((Z x Z) x Z)| s t)
        (forall ((e |((Z x Z) x Z)|)) (=> (|set.in ((Z x Z) x Z)| e s) (|set.in ((Z x Z) x Z)| e t)))
      )
    )
    :named |ax.set.subseteq ((Z x Z) x Z)|))
(declare-fun |set.in POW ((Z x Z) x Z)| (|POW ((Z x Z) x Z)| |POW POW ((Z x Z) x Z)|) Bool)
(declare-fun |set.subseteq (Z x Z)| (|POW (Z x Z)| |POW (Z x Z)|) Bool)
(assert (!
    (forall ((s |POW (Z x Z)|) (t |POW (Z x Z)|))
      (=
        (|set.subseteq (Z x Z)| s t)
        (forall ((e |(Z x Z)|)) (=> (|set.in (Z x Z)| e s) (|set.in (Z x Z)| e t)))
      )
    )
    :named |ax.set.subseteq (Z x Z)|))
(declare-fun |set.in POW (Z x Z)| (|POW (Z x Z)| |POW POW (Z x Z)|) Bool)
(define-sort |BOOL| () Bool)
(declare-fun |sub-sets ((Z x Z) x Z)| (|POW ((Z x Z) x Z)|) |POW POW ((Z x Z) x Z)|)
(assert (!
  (forall ((s |POW ((Z x Z) x Z)|) (t |POW ((Z x Z) x Z)|))
    (=
      (|set.in POW ((Z x Z) x Z)| s (|sub-sets ((Z x Z) x Z)| t))
      (|set.subseteq ((Z x Z) x Z)| s t)))
  :named |ax.sub-sets ((Z x Z) x Z)|))
(declare-fun |set.product (Z x Z) Z| (|POW (Z x Z)| |POW Z|) |POW ((Z x Z) x Z)|)
(assert (!
  (forall ((s1 |POW (Z x Z)|) (s2 |POW Z|))
    (forall ((p |((Z x Z) x Z)|))
      (= (|set.in ((Z x Z) x Z)| p (|set.product (Z x Z) Z| s1 s2))
        (and (|set.in (Z x Z)| (fst p) s1) (|set.in Z| (snd p) s2)))))
  :named |ax.set.in.product.1 ((Z x Z) x Z)|))
(assert (!
  (forall ((s1 |POW (Z x Z)|) (s2 |POW Z|))
    (forall ((x1 |(Z x Z)|) (x2 |Z|))
      (= (|set.in ((Z x Z) x Z)| (maplet x1 x2) (|set.product (Z x Z) Z| s1 s2))
        (and (|set.in (Z x Z)| x1 s1) (|set.in Z| x2 s2)))))
  :named |ax.set.in.product.2 ((Z x Z) x Z)|))
(declare-fun |sub-sets (Z x Z)| (|POW (Z x Z)|) |POW POW (Z x Z)|)
(assert (!
  (forall ((s |POW (Z x Z)|) (t |POW (Z x Z)|))
    (=
      (|set.in POW (Z x Z)| s (|sub-sets (Z x Z)| t))
      (|set.subseteq (Z x Z)| s t)))
  :named |ax.sub-sets (Z x Z)|))
(declare-fun |set.product Z Z| (|POW Z| |POW Z|) |POW (Z x Z)|)
(assert (!
  (forall ((s1 |POW Z|) (s2 |POW Z|))
    (forall ((p |(Z x Z)|))
      (= (|set.in (Z x Z)| p (|set.product Z Z| s1 s2))
        (and (|set.in Z| (fst p) s1) (|set.in Z| (snd p) s2)))))
  :named |ax.set.in.product.1 (Z x Z)|))
(assert (!
  (forall ((s1 |POW Z|) (s2 |POW Z|))
    (forall ((x1 |Z|) (x2 |Z|))
      (= (|set.in (Z x Z)| (maplet x1 x2) (|set.product Z Z| s1 s2))
        (and (|set.in Z| x1 s1) (|set.in Z| x2 s2)))))
  :named |ax.set.in.product.2 (Z x Z)|))
(define-sort |POW BOOL| () (P |BOOL|))
(define-sort |(BOOL x Z)| () (C |BOOL| |Z|))
(declare-fun |relations (Z x Z) Z| (|POW (Z x Z)| |POW Z|) |POW POW ((Z x Z) x Z)|)
(assert (!
  (forall ((X |POW (Z x Z)|) (Y |POW Z|))
    (= (|relations (Z x Z) Z| X Y)
       (|sub-sets ((Z x Z) x Z)| (|set.product (Z x Z) Z| X Y))))
    :named |def.relations ((Z x Z) x Z)|))
(declare-fun |functions (Z x Z) Z| (|POW (Z x Z)| |POW Z|) |POW POW ((Z x Z) x Z)|)
(assert (!
  (forall ((X |POW (Z x Z)|) (Y |POW Z|))
    (forall ((f |POW ((Z x Z) x Z)|))
      (= (|set.in POW ((Z x Z) x Z)| f (|functions (Z x Z) Z| X Y))
         (forall ((p |((Z x Z) x Z)|) (q |((Z x Z) x Z)|))
           (=> (and (|set.in ((Z x Z) x Z)| p f) (|set.in ((Z x Z) x Z)| q f) (= (fst p) (fst q)))
               (= (snd p) (snd q)))))))
:named |ax:set.in.functions ((Z x Z) x Z)|))
(declare-fun |rel.domain (Z x Z) Z| (|POW ((Z x Z) x Z)|) |POW (Z x Z)|)
(assert (!
  (forall ((r |POW ((Z x Z) x Z)|) (e |(Z x Z)|))
    (= (|set.in (Z x Z)| e (|rel.domain (Z x Z) Z| r))
       (exists ((y |Z|)) (|set.in ((Z x Z) x Z)| (maplet e y) r))))
  :named |ax:set.in.domain ((Z x Z) x Z)|))
(declare-fun |relations Z Z| (|POW Z| |POW Z|) |POW POW (Z x Z)|)
(assert (!
  (forall ((X |POW Z|) (Y |POW Z|))
    (= (|relations Z Z| X Y)
       (|sub-sets (Z x Z)| (|set.product Z Z| X Y))))
    :named |def.relations (Z x Z)|))
(declare-fun |functions Z Z| (|POW Z| |POW Z|) |POW POW (Z x Z)|)
(assert (!
  (forall ((X |POW Z|) (Y |POW Z|))
    (forall ((f |POW (Z x Z)|))
      (= (|set.in POW (Z x Z)| f (|functions Z Z| X Y))
         (forall ((p |(Z x Z)|) (q |(Z x Z)|))
           (=> (and (|set.in (Z x Z)| p f) (|set.in (Z x Z)| q f) (= (fst p) (fst q)))
               (= (snd p) (snd q)))))))
:named |ax:set.in.functions (Z x Z)|))
(declare-fun |rel.domain Z Z| (|POW (Z x Z)|) |POW Z|)
(assert (!
  (forall ((r |POW (Z x Z)|) (e |Z|))
    (= (|set.in Z| e (|rel.domain Z Z| r))
       (exists ((y |Z|)) (|set.in (Z x Z)| (maplet e y) r))))
  :named |ax:set.in.domain (Z x Z)|))
(declare-fun |set.in BOOL| (|BOOL| |POW BOOL|) Bool)
(define-sort |POW (BOOL x Z)| () (P |(BOOL x Z)|))
(declare-fun |functions.partial (Z x Z) Z| (|POW (Z x Z)| |POW Z|) |POW POW ((Z x Z) x Z)|)
(assert (!
  (forall ((e1 |POW (Z x Z)|) (e2 |POW Z|))
    (forall ((f |POW ((Z x Z) x Z)|))
      (= (|set.in POW ((Z x Z) x Z)| f (|functions.partial (Z x Z) Z| e1 e2))
         (and (|set.in POW ((Z x Z) x Z)| f (|relations (Z x Z) Z| e1 e2))
              (|set.in POW ((Z x Z) x Z)| f (|functions (Z x Z) Z| e1 e2))))))
  :named |ax:def.pfun ((Z x Z) x Z)|)
)
(declare-fun |relations.total (Z x Z) Z| (|POW (Z x Z)| |POW Z|) |POW POW ((Z x Z) x Z)|)
(assert (!
  (forall ((X |POW (Z x Z)|) (Y |POW Z|))
    (forall ((f |POW ((Z x Z) x Z)|))
      (= (|set.in POW ((Z x Z) x Z)| f (|relations.total (Z x Z) Z| X Y))
         (= (|rel.domain (Z x Z) Z| f) X))))
 :named |ax:set.in.relations.total ((Z x Z) x Z)|))
(declare-fun |functions.partial Z Z| (|POW Z| |POW Z|) |POW POW (Z x Z)|)
(assert (!
  (forall ((e1 |POW Z|) (e2 |POW Z|))
    (forall ((f |POW (Z x Z)|))
      (= (|set.in POW (Z x Z)| f (|functions.partial Z Z| e1 e2))
         (and (|set.in POW (Z x Z)| f (|relations Z Z| e1 e2))
              (|set.in POW (Z x Z)| f (|functions Z Z| e1 e2))))))
  :named |ax:def.pfun (Z x Z)|)
)
(declare-fun |relations.total Z Z| (|POW Z| |POW Z|) |POW POW (Z x Z)|)
(assert (!
  (forall ((X |POW Z|) (Y |POW Z|))
    (forall ((f |POW (Z x Z)|))
      (= (|set.in POW (Z x Z)| f (|relations.total Z Z| X Y))
         (= (|rel.domain Z Z| f) X))))
 :named |ax:set.in.relations.total (Z x Z)|))
(define-sort |? (Z x Z)| () (-> |(Z x Z)| Bool))
(declare-const |set.intent (Z x Z)| (-> |? (Z x Z)| |POW (Z x Z)|))
(assert (!
  (forall ((p |? (Z x Z)|))
    (forall ((x |(Z x Z)|))
      (= (|set.in (Z x Z)| x (|set.intent (Z x Z)| p))
         (@ p x))))
  :named |ax:set.in.intent (Z x Z)|))
(define-sort |? Z| () (-> |Z| Bool))
(declare-const |set.intent Z| (-> |? Z| |POW Z|))
(assert (!
  (forall ((p |? Z|))
    (forall ((x |Z|))
      (= (|set.in Z| x (|set.intent Z| p))
         (@ p x))))
  :named |ax:set.in.intent Z|))
(declare-fun |set.in (BOOL x Z)| (|(BOOL x Z)| |POW (BOOL x Z)|) Bool)
(declare-const s8 |Z|)
(declare-const s13 |POW ((Z x Z) x Z)|)
(declare-const s14 |POW ((Z x Z) x Z)|)
(declare-const s23 |POW ((Z x Z) x Z)|)
(declare-const s9 |Z|)
(declare-const s11 |POW Z|)
(declare-const s15 |POW ((Z x Z) x Z)|)
(declare-const s25 |POW ((Z x Z) x Z)|)
(declare-const s3 |POW Z|)
(declare-const s21 |POW ((Z x Z) x Z)|)
(declare-const s10 |Z|)
(declare-const s7 |Z|)
(declare-const s26 |POW (Z x Z)|)
(declare-const s12 |POW (BOOL x Z)|)
(declare-const s24 |POW ((Z x Z) x Z)|)
(declare-const s1 |POW Z|)
(declare-const s20 |Z|)
(declare-const s22 |POW ((Z x Z) x Z)|)
(declare-const s5 |Z|)
(declare-const s18 |POW (Z x Z)|)
(declare-fun |functions.total (Z x Z) Z| (|POW (Z x Z)| |POW Z|) |POW POW ((Z x Z) x Z)|)
(assert (!
  (forall ((e1 |POW (Z x Z)|) (e2 |POW Z|))
    (forall ((f |POW ((Z x Z) x Z)|))
      (= (|set.in POW ((Z x Z) x Z)| f (|functions.total (Z x Z) Z| e1 e2))
         (and (|set.in POW ((Z x Z) x Z)| f (|functions.partial (Z x Z) Z| e1 e2))
              (|set.in POW ((Z x Z) x Z)| f (|relations.total (Z x Z) Z| e1 e2))))))
  :named |ax:def.tfun ((Z x Z) x Z)|))
(declare-fun |interval| (|Z| |Z|) |POW Z|)
 (assert (!
    (forall ((l |Z|) (u |Z|) (e |Z|))
        (= (|set.in Z| e (|interval| l u))
            (and (<= l e) (<= e u))))
    :named |ax.set.in.interval|))
(assert (!
  (forall ((s |POW Z|) (t |POW Z|))
    (=
      (= s t)
      (forall ((e |Z|)) (= (|set.in Z| e s) (|set.in Z| e t)))))
  :named |ax.set.eq Z|))
(declare-fun |functions.total Z Z| (|POW Z| |POW Z|) |POW POW (Z x Z)|)
(assert (!
  (forall ((e1 |POW Z|) (e2 |POW Z|))
    (forall ((f |POW (Z x Z)|))
      (= (|set.in POW (Z x Z)| f (|functions.total Z Z| e1 e2))
         (and (|set.in POW (Z x Z)| f (|functions.partial Z Z| e1 e2))
              (|set.in POW (Z x Z)| f (|relations.total Z Z| e1 e2))))))
  :named |ax:def.tfun (Z x Z)|))
(define-fun-rec |int.exp| ((n |Z|) (p |Z|)) |Z|
 (ite (= p 0)
    1
    (ite (> p 0)
        (* n (|int.exp| n (- p 1)))
        0)))
(declare-fun |int.div| (|Z| |Z|) |Z|)
(assert (!
  (forall ((a |Z|) (b |Z|))
    (and
      (=> (and (<= 0 a) (< 0 b))
        (= (|int.div| a b) (div a b)))
      (=> (and (<= 0 a) (< b 0))
        (= (|int.div| a b) (- (div a (- b)))))
      (=> (and (< a 0) (< 0 b))
        (= (|int.div| a b) (- (div (- a) b))))
      (=> (and (<= a 0) (< b 0))
        (= (|int.div| a b) (div a b)))))
  :named |ax.int.div :1|))
  (declare-fun |fun.eval (Z x Z) Z| (|POW ((Z x Z) x Z)| |(Z x Z)|) |Z|)
 (assert (!
    (forall ((f |POW ((Z x Z) x Z)|)(x |(Z x Z)|))
        (|set.in ((Z x Z) x Z)| (maplet x (|fun.eval (Z x Z) Z| f x)) f))
    :named |ax.fun.eval ((Z x Z) x Z)|))
(assert (!
  (forall ((s |POW ((Z x Z) x Z)|) (t |POW ((Z x Z) x Z)|))
    (=
      (= s t)
      (forall ((e |((Z x Z) x Z)|)) (= (|set.in ((Z x Z) x Z)| e s) (|set.in ((Z x Z) x Z)| e t)))))
  :named |ax.set.eq ((Z x Z) x Z)|))
(declare-fun |set.lambda (Z x Z) Z| (|? (Z x Z)| (-> |(Z x Z)| |Z|)) |POW ((Z x Z) x Z)|)
(assert (!
  (forall ((P |? (Z x Z)|)(E (-> |(Z x Z)| |Z|)))
    (forall ((p |((Z x Z) x Z)|))
      (= (|set.in ((Z x Z) x Z)| p (|set.lambda (Z x Z) Z| P E))
         (and (@ P (fst p))
              (= (snd p) (@ E (fst p)))))))
    :named |ax.set.in.lambda (Z x Z) Z|))
(declare-fun |set.lambda Z Z| (|? Z| (-> |Z| |Z|)) |POW (Z x Z)|)
(assert (!
  (forall ((P |? Z|)(E (-> |Z| |Z|)))
    (forall ((p |(Z x Z)|))
      (= (|set.in (Z x Z)| p (|set.lambda Z Z| P E))
         (and (@ P (fst p))
              (= (snd p) (@ E (fst p)))))))
    :named |ax.set.in.lambda Z Z|))
(assert (!
  (forall ((s |POW (Z x Z)|) (t |POW (Z x Z)|))
    (=
      (= s t)
      (forall ((e |(Z x Z)|)) (= (|set.in (Z x Z)| e s) (|set.in (Z x Z)| e t)))))
  :named |ax.set.eq (Z x Z)|))
(define-sort |? (BOOL x Z)| () (-> |(BOOL x Z)| Bool))
(declare-const |set.intent (BOOL x Z)| (-> |? (BOOL x Z)| |POW (BOOL x Z)|))
(assert (!
  (forall ((p |? (BOOL x Z)|))
    (forall ((x |(BOOL x Z)|))
      (= (|set.in (BOOL x Z)| x (|set.intent (BOOL x Z)| p))
         (@ p x))))
  :named |ax:set.in.intent (BOOL x Z)|))
(assert (!
  (forall ((s |POW (BOOL x Z)|) (t |POW (BOOL x Z)|))
    (=
      (= s t)
      (forall ((e |(BOOL x Z)|)) (= (|set.in (BOOL x Z)| e s) (|set.in (BOOL x Z)| e t)))))
  :named |ax.set.eq (BOOL x Z)|))
(assert (!
  (|set.in Z| s20 s1)
  :named |Local_Hyp:1|))
(assert (!
  (= s1 (|interval| 0 4294967295))
  :named |Define:ctx:1|))
(assert (!
  (|set.in Z| s5 s1)
  :named |Define:ctx:5|))
(assert (!
  (|set.in Z| s8 s1)
  :named |Define:ctx:8|))
(assert (!
  (|set.in POW ((Z x Z) x Z)| s13 (|functions.total (Z x Z) Z| (|set.product Z Z| s1 s1) s1))
  :named |Define:ctx:23|))
(assert (!
  (|set.in POW ((Z x Z) x Z)| s14 (|functions.total (Z x Z) Z| (|set.product Z Z| s1 s1) s1))
  :named |Define:ctx:24|))
(assert (!
  (|set.in POW ((Z x Z) x Z)| s15 (|functions.total (Z x Z) Z| (|set.product Z Z| s1 s1) s1))
  :named |Define:ctx:25|))
(assert (!
  (= s13 (|set.lambda (Z x Z) Z| (lambda ((_c0 |(Z x Z)|)) (and
  (|set.in Z| (fst _c0) s1)
  (|set.in Z| (snd _c0) s1)))  (lambda ((_c0 |(Z x Z)|)) (mod (+ (fst _c0) (snd _c0)) (+ s5 1)))))
  :named |Define:ctx:26|))
(assert (!
  (= s14 (|set.lambda (Z x Z) Z| (lambda ((_c0 |(Z x Z)|)) (and
  (|set.in Z| (fst _c0) s1)
  (|set.in Z| (snd _c0) s1)))  (lambda ((_c0 |(Z x Z)|)) (mod (+ (+ (- (fst _c0) (snd _c0)) s5) 1) (+ s5 1)))))
  :named |Define:ctx:27|))
(assert (!
  (= s15 (|set.lambda (Z x Z) Z| (lambda ((_c0 |(Z x Z)|)) (and
  (|set.in Z| (fst _c0) s1)
  (|set.in Z| (snd _c0) s1)))  (lambda ((_c0 |(Z x Z)|)) (mod (* (fst _c0) (snd _c0)) (+ s5 1)))))
  :named |Define:ctx:28|))
(assert (!
  (|set.in POW ((Z x Z) x Z)| s21 (|functions.total (Z x Z) Z| (|set.product Z Z| s1 s3) s1))
  :named |Define:ctx:33|))
(assert (!
  (|set.in POW ((Z x Z) x Z)| s22 (|functions.total (Z x Z) Z| (|set.product Z Z| s1 s3) s1))
  :named |Define:ctx:34|))
(assert (!
  (|set.in POW ((Z x Z) x Z)| s23 (|functions.total (Z x Z) Z| (|set.product Z Z| s1 s1) s1))
  :named |Define:ctx:35|))
(assert (!
  (|set.in POW ((Z x Z) x Z)| s24 (|functions.total (Z x Z) Z| (|set.product Z Z| s1 s1) s1))
  :named |Define:ctx:36|))
(assert (!
  (|set.in POW ((Z x Z) x Z)| s25 (|functions.total (Z x Z) Z| (|set.product Z Z| s1 s1) s1))
  :named |Define:ctx:37|))
(assert (!
  (|set.in POW (Z x Z)| s26 (|functions.total Z Z| s1 s1))
  :named |Define:ctx:38|))
(assert (!
  (= s21 (|set.lambda (Z x Z) Z| (lambda ((_c0 |(Z x Z)|)) (and
  (|set.in Z| (fst _c0) s1)
  (|set.in Z| (snd _c0) s3)))  (lambda ((_c0 |(Z x Z)|)) (mod (* (fst _c0) (|int.exp| 2 (snd _c0))) (+ s5 1)))))
  :named |Define:ctx:39|))
(assert (!
  (= s22 (|set.lambda (Z x Z) Z| (lambda ((_c0 |(Z x Z)|)) (and
  (|set.in Z| (fst _c0) s1)
  (|set.in Z| (snd _c0) s3)))  (lambda ((_c0 |(Z x Z)|)) (|int.div| (fst _c0) (|int.exp| 2 (snd _c0))))))
  :named |Define:ctx:40|))
(assert (!
  (= s3 (|interval| 0 255))
  :named |Define:ctx:3|))
(assert (!
  (|set.in Z| s7 s3)
  :named |Define:ctx:7|))
(assert (!
  (|set.in Z| s9 s3)
  :named |Define:ctx:9|))
(assert (!
  (|set.in Z| s10 s3)
  :named |Define:ctx:10|))
(assert (!
  (= s5 4294967295)
  :named |Define:ctx:12|))
(assert (!
  (= s8 (|int.div| (+ s5 1) 2))
  :named |Define:ctx:15|))
(assert (!
  (|set.in POW (Z x Z)| s18 (|functions.total Z Z| s3 s3))
  :named |Define:ctx:29|))
(assert (!
  (= s18 (|set.lambda Z Z| (lambda ((_c0 |Z|)) (|set.in Z| _c0 s3))  (lambda ((_c0 |Z|)) _c0)))
  :named |Define:ctx:31|))
(assert (!
  (= s7 255)
  :named |Define:ctx:14|))
(assert (!
  (|set.in Z| s9 (|interval| 0 s7))
  :named |Define:ctx:16|))
(assert (!
  (|set.in Z| s10 (|interval| 0 s7))
  :named |Define:ctx:17|))
(assert (!
  (not
  (= s9 s10))
  :named |Define:ctx:18|))
(assert (!
  (= s11 (|set.intent Z| (lambda ((_c0 |Z|)) (or (= _c0 s9)(= _c0 s10)))))
  :named |Define:ctx:19|))
(assert (!
  (<= s9 2)
  :named |Define:ctx:20|))
(assert (!
  (<= s10 2)
  :named |Define:ctx:21|))
(assert (!
  (= s12 (|set.intent (BOOL x Z)| (lambda ((_c0 |(BOOL x Z)|)) (or (= _c0 (maplet true s9))(= _c0 (maplet false s10))))))
  :named |Define:ctx:22|))
(assert (!
  (not
    (|set.in (Z x Z)| (maplet (|fun.eval (Z x Z) Z| s22 (maplet s20 8)) 8) (|rel.domain (Z x Z) Z| s22)))
  :named |Goal|))
(check-sat)
(exit)
